language Essence 1.3

letting costTC be
        function((1, 1) --> 1, (1, 2) --> 4, (1, 3) --> 5, (1, 4) --> 4, (1, 5) --> 6, (1, 6) --> 1, (1, 7) --> 5,
                 (1, 8) --> 5, (2, 1) --> 6, (2, 2) --> 3, (2, 3) --> 4, (2, 4) --> 4, (2, 5) --> 5, (2, 6) --> 2,
                 (2, 7) --> 1, (2, 8) --> 5, (3, 1) --> 6, (3, 2) --> 3, (3, 3) --> 3, (3, 4) --> 1, (3, 5) --> 2,
                 (3, 6) --> 5, (3, 7) --> 5, (3, 8) --> 1, (4, 1) --> 2, (4, 2) --> 5, (4, 3) --> 5, (4, 4) --> 3,
                 (4, 5) --> 5, (4, 6) --> 3, (4, 7) --> 6, (4, 8) --> 6, (5, 1) --> 2, (5, 2) --> 2, (5, 3) --> 4,
                 (5, 4) --> 5, (5, 5) --> 1, (5, 6) --> 5, (5, 7) --> 2, (5, 8) --> 3, (6, 1) --> 3, (6, 2) --> 5,
                 (6, 3) --> 2, (6, 4) --> 2, (6, 5) --> 1, (6, 6) --> 5, (6, 7) --> 1, (6, 8) --> 5, (7, 1) --> 1,
                 (7, 2) --> 4, (7, 3) --> 3, (7, 4) --> 1, (7, 5) --> 2, (7, 6) --> 5, (7, 7) --> 4, (7, 8) --> 4)
letting costWT be
        function((1, 1) --> 3, (1, 2) --> 3, (1, 3) --> 1, (1, 4) --> 1, (1, 5) --> 2, (1, 6) --> 2, (1, 7) --> 3,
                 (2, 1) --> 3, (2, 2) --> 3, (2, 3) --> 2, (2, 4) --> 1, (2, 5) --> 3, (2, 6) --> 3, (2, 7) --> 3,
                 (3, 1) --> 2, (3, 2) --> 3, (3, 3) --> 1, (3, 4) --> 3, (3, 5) --> 2, (3, 6) --> 2, (3, 7) --> 2,
                 (4, 1) --> 1, (4, 2) --> 1, (4, 3) --> 1, (4, 4) --> 1, (4, 5) --> 3, (4, 6) --> 2, (4, 7) --> 2,
                 (5, 1) --> 2, (5, 2) --> 2, (5, 3) --> 3, (5, 4) --> 3, (5, 5) --> 3, (5, 6) --> 1, (5, 7) --> 2,
                 (6, 1) --> 1, (6, 2) --> 3, (6, 3) --> 3, (6, 4) --> 1, (6, 5) --> 1, (6, 6) --> 2, (6, 7) --> 2,
                 (7, 1) --> 1, (7, 2) --> 2, (7, 3) --> 3, (7, 4) --> 1, (7, 5) --> 1, (7, 6) --> 1, (7, 7) --> 2,
                 (8, 1) --> 2, (8, 2) --> 3, (8, 3) --> 1, (8, 4) --> 2, (8, 5) --> 3, (8, 6) --> 2, (8, 7) --> 1,
                 (9, 1) --> 3, (9, 2) --> 2, (9, 3) --> 2, (9, 4) --> 1, (9, 5) --> 1, (9, 6) --> 2, (9, 7) --> 3,
                 (10, 1) --> 2, (10, 2) --> 2, (10, 3) --> 2, (10, 4) --> 2, (10, 5) --> 2, (10, 6) --> 2,
                 (10, 7) --> 3, (11, 1) --> 1, (11, 2) --> 2, (11, 3) --> 3, (11, 4) --> 1, (11, 5) --> 2,
                 (11, 6) --> 1, (11, 7) --> 2, (12, 1) --> 3, (12, 2) --> 2, (12, 3) --> 2, (12, 4) --> 3,
                 (12, 5) --> 1, (12, 6) --> 1, (12, 7) --> 2, (13, 1) --> 3, (13, 2) --> 3, (13, 3) --> 3,
                 (13, 4) --> 2, (13, 5) --> 1, (13, 6) --> 3, (13, 7) --> 1, (14, 1) --> 1, (14, 2) --> 3,
                 (14, 3) --> 2, (14, 4) --> 2, (14, 5) --> 1, (14, 6) --> 1, (14, 7) --> 1, (15, 1) --> 2,
                 (15, 2) --> 1, (15, 3) --> 3, (15, 4) --> 2, (15, 5) --> 3, (15, 6) --> 3, (15, 7) --> 1,
                 (16, 1) --> 3, (16, 2) --> 1, (16, 3) --> 2, (16, 4) --> 3, (16, 5) --> 2, (16, 6) --> 3,
                 (16, 7) --> 2, (17, 1) --> 2, (17, 2) --> 2, (17, 3) --> 1, (17, 4) --> 2, (17, 5) --> 3,
                 (17, 6) --> 1, (17, 7) --> 1, (18, 1) --> 1, (18, 2) --> 3, (18, 3) --> 2, (18, 4) --> 1,
                 (18, 5) --> 2, (18, 6) --> 3, (18, 7) --> 2, (19, 1) --> 2, (19, 2) --> 3, (19, 3) --> 2,
                 (19, 4) --> 1, (19, 5) --> 1, (19, 6) --> 1, (19, 7) --> 3, (20, 1) --> 1, (20, 2) --> 3,
                 (20, 3) --> 2, (20, 4) --> 1, (20, 5) --> 3, (20, 6) --> 2, (20, 7) --> 2, (21, 1) --> 1,
                 (21, 2) --> 2, (21, 3) --> 3, (21, 4) --> 1, (21, 5) --> 2, (21, 6) --> 3, (21, 7) --> 2,
                 (22, 1) --> 2, (22, 2) --> 1, (22, 3) --> 3, (22, 4) --> 2, (22, 5) --> 2, (22, 6) --> 2,
                 (22, 7) --> 2, (23, 1) --> 2, (23, 2) --> 2, (23, 3) --> 3, (23, 4) --> 2, (23, 5) --> 3,
                 (23, 6) --> 1, (23, 7) --> 3, (24, 1) --> 2, (24, 2) --> 2, (24, 3) --> 3, (24, 4) --> 2,
                 (24, 5) --> 2, (24, 6) --> 2, (24, 7) --> 1, (25, 1) --> 3, (25, 2) --> 3, (25, 3) --> 1,
                 (25, 4) --> 3, (25, 5) --> 1, (25, 6) --> 3, (25, 7) --> 2)
letting demand be function(1 --> 8, 2 --> 7, 3 --> 6, 4 --> 7, 5 --> 4, 6 --> 3, 7 --> 5, 8 --> 3)
letting maxCost be 18
letting n_customer be 8
letting n_transshipment be 7
letting n_warehouses be 25
letting stock be
        function(1 --> 12, 2 --> 4, 3 --> 1, 4 --> 5, 5 --> 8, 6 --> 1, 7 --> 1, 8 --> 11, 9 --> 2, 10 --> 8, 11 --> 2,
                 12 --> 12, 13 --> 5, 14 --> 2, 15 --> 4, 16 --> 12, 17 --> 11, 18 --> 5, 19 --> 8, 20 --> 5, 21 --> 4,
                 22 --> 10, 23 --> 10, 24 --> 10, 25 --> 9)
